results/res_prop_muc/res_Cimatti_mathsat_cores/QF_UF/SEQ019_size4.smt.smt2.res
unsat
( _c0
  _c10
  _c100
  _c101
  _c103
  _c104
  _c105
  _c106
  _c108
  _c109
  _c110
  _c111
  _c113
  _c115
  _c116
  _c117
  _c119
  _c12
  _c120
  _c121
  _c124
  _c127
  _c129
  _c13
  _c130
  _c132
  _c136
  _c137
  _c138
  _c14
  _c140
  _c143
  _c145
  _c146
  _c147
  _c15
  _c151
  _c156
  _c159
  _c161
  _c162
  _c163
  _c165
  _c166
  _c169
  _c173
  _c18
  _c19
  _c190
  _c191
  _c192
  _c193
  _c194
  _c195
  _c196
  _c197
  _c198
  _c199
  _c2
  _c20
  _c200
  _c201
  _c202
  _c203
  _c204
  _c205
  _c207
  _c208
  _c209
  _c21
  _c210
  _c212
  _c213
  _c214
  _c215
  _c217
  _c22
  _c220
  _c222
  _c223
  _c224
  _c225
  _c226
  _c227
  _c228
  _c231
  _c232
  _c233
  _c234
  _c236
  _c239
  _c241
  _c25
  _c250
  _c251
  _c252
  _c253
  _c255
  _c256
  _c271
  _c286
  _c287
  _c288
  _c291
  _c292
  _c294
  _c295
  _c296
  _c3
  _c30
  _c31
  _c36
  _c4
  _c40
  _c48
  _c49
  _c5
  _c51
  _c52
  _c53
  _c54
  _c56
  _c57
  _c58
  _c64
  _c65
  _c66
  _c68
  _c69
  _c7
  _c70
  _c72
  _c73
  _c74
  _c75
  _c79
  _c8
  _c81
  _c82
  _c83
  _c85
  _c86
  _c87
  _c9
  _c90
  _c93
  _c94
  _c95
  _c98
  _c99 )
